% Auto-generated by scripts/generate_dzn.py
% problem_type   = regex
% instance       = regex_79
% source_json    = instances_json/1_medium_blowup/regex_79.json
% blowup         = 4.1
% representation = DFA

mode = 0;

var_count = 27;
Q = 41;
S = 2;
q0 = 1;
F = {29, 30, 31, 32, 33, 34, 35, 36, 37, 38, 39, 40, 41};
d_dfa = array2d(1..41, 1..2, [
  2, 1,
  2, 3,
  2, 4,
  6, 5,
  8, 7,
  8, 9,
  11, 10,
  11, 12,
  11, 13,
  15, 14,
  15, 16,
  15, 17,
  19, 18,
  21, 20,
  21, 22,
  21, 23,
  25, 24,
  27, 26,
  27, 28,
  30, 29,
  30, 31,
  30, 32,
  34, 33,
  36, 35,
  36, 37,
  39, 38,
  39, 40,
  39, 41,
  2, 1,
  2, 3,
  2, 4,
  6, 5,
  8, 7,
  8, 9,
  11, 10,
  11, 12,
  11, 13,
  15, 14,
  15, 16,
  15, 17,
  19, 18
]);
d_nfa = array2d(1..41, 1..2, [
  {}, {},
  {}, {},
  {}, {},
  {}, {},
  {}, {},
  {}, {},
  {}, {},
  {}, {},
  {}, {},
  {}, {},
  {}, {},
  {}, {},
  {}, {},
  {}, {},
  {}, {},
  {}, {},
  {}, {},
  {}, {},
  {}, {},
  {}, {},
  {}, {},
  {}, {},
  {}, {},
  {}, {},
  {}, {},
  {}, {},
  {}, {},
  {}, {},
  {}, {},
  {}, {},
  {}, {},
  {}, {},
  {}, {},
  {}, {},
  {}, {},
  {}, {},
  {}, {},
  {}, {},
  {}, {},
  {}, {},
  {}, {}
]);
